feasible solution found by trivial heuristic after 0.0 seconds, objective value 0.000000e+00
presolving:
   (0.0s) running MILP presolver
   (0.0s) MILP presolver found nothing
(round 1, exhaustive) 0 del vars, 0 del conss, 0 add conss, 0 chg bounds, 0 chg sides, 0 chg coeffs, 1955 upgd conss, 0 impls, 1955 clqs
   (0.0s) probing: 51/500 (10.2%) - 0 fixings, 0 aggregations, 0 implications, 0 bound changes
   (0.0s) probing aborted: 50/50 successive totally useless probings
   (0.0s) symmetry computation started: requiring (bin +, int -, cont +), (fixed: bin -, int +, cont -)
   (0.0s) no symmetry present
presolving (2 rounds: 2 fast, 2 medium, 2 exhaustive):
 0 deleted vars, 0 deleted constraints, 0 added constraints, 0 tightened bounds, 0 added holes, 0 changed sides, 0 changed coefficients
 0 implications, 1955 cliques
presolved problem has 500 variables (500 bin, 0 int, 0 impl, 0 cont) and 1955 constraints
   1955 constraints of type <setppc>
transformed objective value is always integral (scale: 1)
Presolving Time: 0.04
transformed 1/1 original solutions to the transformed problem space

 time | node  | left  |LP iter|LP it/n|mem/heur|mdpt |vars |cons |rows |cuts |sepa|confs|strbr|  dualbound   | primalbound  |  gap   | compl. 
p 0.1s|     1 |     0 |     0 |     - |  clique|   0 | 500 |1955 |1955 |   0 |  0 |   0 |   0 | 5.000000e+02 | 1.390000e+02 | 259.71%| unknown
p 0.1s|     1 |     0 |     0 |     - |   locks|   0 | 500 |1955 |1955 |   0 |  0 |   0 |   0 | 5.000000e+02 | 2.160000e+02 | 131.48%| unknown
i 0.1s|     1 |     0 |     0 |     - |  oneopt|   0 | 500 |1955 |1955 |   0 |  0 |   0 |   0 | 5.000000e+02 | 2.200000e+02 | 127.27%| unknown
  0.1s|     1 |     0 |   885 |     - |  9791k |   0 | 500 |1955 |1955 |   0 |  0 |   0 |   0 | 2.432500e+02 | 2.200000e+02 |  10.57%| unknown
  0.2s|     1 |     0 |  1178 |     - |    10M |   0 | 500 |1955 |1976 |  21 |  1 |   0 |   0 | 2.383333e+02 | 2.200000e+02 |   8.33%| unknown
  0.4s|     1 |     0 |  1288 |     - |    11M |   0 | 500 |1955 |1982 |  27 |  2 |   0 |   0 | 2.363333e+02 | 2.200000e+02 |   7.42%| unknown
  0.6s|     1 |     0 |  1472 |     - |    11M |   0 | 500 |1955 |1988 |  33 |  3 |   0 |   0 | 2.353333e+02 | 2.200000e+02 |   6.97%| unknown
  0.8s|     1 |     0 |  1676 |     - |    12M |   0 | 500 |1955 |1997 |  42 |  4 |   0 |   0 | 2.340000e+02 | 2.200000e+02 |   6.36%| unknown
  1.0s|     1 |     0 |  1794 |     - |    13M |   0 | 500 |1955 |2003 |  48 |  5 |   0 |   0 | 2.330833e+02 | 2.200000e+02 |   5.95%| unknown
  1.3s|     1 |     0 |  1959 |     - |    13M |   0 | 500 |1955 |2013 |  58 |  6 |   0 |   0 | 2.329630e+02 | 2.200000e+02 |   5.89%| unknown
  1.6s|     1 |     0 |  2105 |     - |    14M |   0 | 500 |1955 |2023 |  68 |  7 |   0 |   0 | 2.320000e+02 | 2.200000e+02 |   5.45%| unknown
  1.8s|     1 |     0 |  2216 |     - |    14M |   0 | 500 |1955 |2029 |  74 |  8 |   0 |   0 | 2.319840e+02 | 2.200000e+02 |   5.45%| unknown
  2.4s|     1 |     0 |  2449 |     - |    16M |   0 | 500 |1955 |2037 |  82 |  9 |   0 |   0 | 2.312870e+02 | 2.200000e+02 |   5.13%| unknown
  3.0s|     1 |     0 |  2591 |     - |    18M |   0 | 500 |1955 |2043 |  88 | 10 |   0 |   0 | 2.310261e+02 | 2.200000e+02 |   5.01%| unknown
  3.0s|     1 |     0 |  2711 |     - |    18M |   0 | 500 |1955 |2050 |  96 | 11 |   0 |   0 | 2.308745e+02 | 2.200000e+02 |   4.94%| unknown
 time | node  | left  |LP iter|LP it/n|mem/heur|mdpt |vars |cons |rows |cuts |sepa|confs|strbr|  dualbound   | primalbound  |  gap   | compl. 
  3.1s|     1 |     0 |  2846 |     - |    19M |   0 | 500 |1955 |2055 | 101 | 12 |   0 |   0 | 2.307527e+02 | 2.200000e+02 |   4.89%| unknown
  3.1s|     1 |     0 |  2983 |     - |    19M |   0 | 500 |1955 |2059 | 105 | 13 |   0 |   0 | 2.305174e+02 | 2.200000e+02 |   4.78%| unknown
  3.1s|     1 |     0 |  3052 |     - |    19M |   0 | 500 |1955 |2061 | 107 | 14 |   0 |   0 | 2.304348e+02 | 2.200000e+02 |   4.74%| unknown
  3.2s|     1 |     0 |  3067 |     - |    20M |   0 | 500 |1955 |2063 | 109 | 15 |   0 |   0 | 2.304348e+02 | 2.200000e+02 |   4.74%| unknown
  3.2s|     1 |     0 |  3139 |     - |    20M |   0 | 500 |1955 |2065 | 111 | 16 |   0 |   0 | 2.304163e+02 | 2.200000e+02 |   4.73%| unknown
  3.2s|     1 |     0 |  3201 |     - |    20M |   0 | 500 |1955 |2047 | 113 | 17 |   0 |   0 | 2.303898e+02 | 2.200000e+02 |   4.72%| unknown
  3.2s|     1 |     0 |  3225 |     - |    20M |   0 | 500 |1955 |2050 | 116 | 18 |   0 |   0 | 2.303781e+02 | 2.200000e+02 |   4.72%| unknown
  3.3s|     1 |     0 |  3242 |     - |    20M |   0 | 500 |1955 |2053 | 119 | 19 |   0 |   0 | 2.303695e+02 | 2.200000e+02 |   4.71%| unknown
  3.3s|     1 |     0 |  3267 |     - |    21M |   0 | 500 |1955 |2057 | 123 | 20 |   0 |   0 | 2.303666e+02 | 2.200000e+02 |   4.71%| unknown
  4.5s|     1 |     2 |  3270 |     - |    21M |   0 | 500 |1955 |2057 | 123 | 22 |   0 |  44 | 2.299508e+02 | 2.200000e+02 |   4.52%| unknown
* 4.5s|     2 |     1 |  3474 | 207.0 |strongbr|   1 | 500 |1955 |2034 | 123 |  1 |   0 |  44 | 2.299508e+02 | 2.270000e+02 |   1.30%| unknown
i 4.5s|     3 |     0 |  3474 | 103.5 |  oneopt|   1 | 500 |1938 |2034 | 123 |  0 |   0 |  45 | 2.299508e+02 | 2.290000e+02 |   0.42%|  80.85%

SCIP Status        : problem is solved [optimal solution found]
Solving Time (sec) : 4.50
Solving Nodes      : 3
Primal Bound       : +2.29000000000000e+02 (95 solutions)
Dual Bound         : +2.29000000000000e+02
Gap                : 0.00 %
Solve Status: optimal
Solve Time: 4.50 seconds
